
Gurobi 9.1.1 (mac64, gurobi_cl) logging started Mon Feb 22 10:02:35 2021

Academic license - for non-commercial use only - expires 2021-04-06
Using license file /Users/agnese/gurobi.lic
Set parameter LogFile to value gurobi.log

Gurobi Optimizer version 9.1.1 build v9.1.1rc0 (mac64)
Copyright (c) 2020, Gurobi Optimization, LLC

Read LP format model from file /Users/agnese/Documents/KTH-Work/GitHub_repositories/KTH-dESA/GLUCOSE/results/Baseline2060/Baseline2060_modified2/GLUCOSE_Baseline2060_modified2.lp
Reading time = 0.45 seconds
cost: 55289 rows, 45900 columns, 520298 nonzeros
Thread count: 2 physical cores, 4 logical processors, using up to 4 threads
Optimize a model with 55289 rows, 45900 columns and 520298 nonzeros
Model fingerprint: 0x518a8b23
Coefficient statistics:
  Matrix range     [2e-08, 6e+03]
  Objective range  [7e-08, 4e+11]
  Bounds range     [0e+00, 0e+00]
  RHS range        [1e-04, 1e+06]
Warning: Model contains large objective coefficients
         Consider reformulating model or setting NumericFocus parameter
         to avoid numerical issues.

Concurrent LP optimizer: dual simplex and barrier
Showing barrier log only...

Presolve removed 29482 rows and 27980 columns
Presolve time: 0.21s
Presolved: 25807 rows, 18042 columns, 362603 nonzeros

Ordering time: 1.82s

Barrier statistics:
 AA' NZ     : 1.362e+06
 Factor NZ  : 9.290e+06 (roughly 100 MBytes of memory)
 Factor Ops : 9.258e+09 (roughly 1 second per iteration)
 Threads    : 1

                  Objective                Residual
Iter       Primal          Dual         Primal    Dual     Compl     Time
   0   5.03243265e+20 -3.34006502e+17  9.31e+08 2.08e+12  3.46e+16     4s
   1   2.66823324e+20 -4.79072160e+17  9.16e+08 1.98e+12  3.37e+16     5s
   2   3.72323110e+20 -1.42211144e+18  8.48e+08 1.39e+12  3.35e+16     6s
   3   1.41192722e+20 -3.61278964e+18  2.65e+08 4.46e+11  1.46e+16     7s
   4   3.20465242e+19 -3.86864823e+18  5.90e+07 2.29e+10  3.56e+15     9s
   5   3.34959262e+18 -2.78094972e+18  6.12e+06 2.15e+07  4.10e+14     9s
   6   1.20638210e+18 -2.02337239e+18  2.22e+06 1.04e+07  1.64e+14    10s
   7   1.02813118e+18 -1.57156481e+18  1.90e+06 7.27e+06  1.34e+14    11s
   8   5.50385561e+17 -8.77616374e+17  1.04e+06 2.34e+06  6.96e+13    12s
   9   8.25663641e+16 -3.67563186e+17  1.52e+05 3.86e+05  1.49e+13    13s
  10   2.80938272e+16 -1.22502261e+17  5.13e+04 9.65e+04  4.87e+12    14s
  11   7.38623011e+15 -3.01008205e+16  1.30e+04 1.70e+04  1.25e+12    15s
  12   3.89870649e+15 -8.04162328e+15  6.88e+03 3.19e+03  4.86e+11    15s
  13   8.43224661e+14 -3.42817764e+15  1.44e+03 1.04e+03  1.36e+11    16s
  14   3.87679756e+14 -1.71831167e+15  6.65e+02 1.44e+02  6.28e+10    17s
  15   6.43177509e+13 -3.78409490e+14  8.09e+01 1.81e+01  1.11e+10    18s
  16   2.47990795e+13 -2.12268432e+14  2.10e+01 8.86e+00  5.41e+09    19s
  17   5.65553227e+12 -6.76391329e+13  1.17e+00 2.22e+00  1.56e+09    20s
  18   2.56176299e+12 -2.06627861e+13  5.39e-01 5.43e-01  4.90e+08    21s
  19   1.95399152e+11 -3.59424272e+12  1.45e-02 7.98e-02  7.83e+07    21s
  20   1.17257208e+10 -3.36154886e+11  1.84e-04 6.59e-03  7.17e+06    22s
  21   2.23258923e+09 -1.84225787e+10  1.15e-08 2.44e-04  4.26e+05    23s
  22   3.25419429e+08 -1.48893875e+09  1.45e-09 4.88e-04  3.74e+04    24s
  23   2.62781209e+07 -1.26180052e+08  1.43e-09 4.88e-04  3.14e+03    25s
  24   2.62141303e+06 -4.20483495e+06  1.70e-09 4.88e-04  1.41e+02    25s
  25   4.43770672e+05 -8.82806008e+05  2.63e-09 2.44e-04  2.74e+01    26s
  26   3.58750003e+05 -1.40894688e+05  1.53e-09 2.44e-04  1.03e+01    27s
  27   3.19386272e+05  7.81858102e+04  6.57e-10 2.44e-04  4.97e+00    28s
  28   2.92549664e+05  1.95094703e+05  2.29e-09 2.44e-04  2.01e+00    29s
  29   2.83430163e+05  2.31457162e+05  8.66e-10 2.44e-04  1.07e+00    30s
  30   2.75229573e+05  2.61414004e+05  8.44e-10 4.88e-04  2.85e-01    31s
  31   2.72363946e+05  2.63618513e+05  7.13e-10 2.44e-04  1.80e-01    31s
  32   2.67457129e+05  2.66702434e+05  2.06e-09 2.44e-04  1.56e-02    32s
  33   2.67257551e+05  2.66881816e+05  1.71e-08 2.44e-04  7.87e-03    33s
  34   2.67127895e+05  2.67046483e+05  3.67e-08 4.88e-04  1.82e-03    34s
  35   2.67079365e+05  2.67074147e+05  2.08e-08 2.44e-04  2.19e-04    35s
  36   2.67074328e+05  2.67073889e+05  1.24e-07 2.44e-04  7.20e-05    36s
  37   2.67072854e+05  2.67072337e+05  6.90e-08 2.44e-04  3.49e-05    37s
  38   2.67072314e+05  2.67070778e+05  3.84e-08 2.44e-04  2.29e-05    38s
  39   2.67071494e+05  2.67071555e+05  4.93e-09 2.44e-04  4.11e-06    39s
  40   2.67071369e+05  2.67071388e+05  1.88e-08 2.44e-04  1.13e-06    40s
  41   2.67071335e+05  2.67071330e+05  8.13e-07 4.88e-04  8.86e-08    41s
  42   2.67071333e+05  2.67071333e+05  1.77e-07 2.44e-04  8.05e-09    41s

Barrier solved model in 42 iterations and 41.40 seconds
Optimal objective 2.67071333e+05

Crossover log...

    6483 DPushes remaining with DInf 0.0000000e+00                41s
       0 DPushes remaining with DInf 0.0000000e+00                42s

    3950 PPushes remaining with PInf 9.4003151e-04                42s
       0 PPushes remaining with PInf 0.0000000e+00                42s

  Push phase complete: Pinf 0.0000000e+00, Dinf 3.4926784e+00     42s

Iteration    Objective       Primal Inf.    Dual Inf.      Time
    7804    2.6707133e+05   0.000000e+00   3.492678e+00     42s
Extra simplex iterations after uncrush: 1
    8012    2.6707133e+05   0.000000e+00   0.000000e+00     42s

Solved with barrier
Solved in 8012 iterations and 42.43 seconds
Optimal objective  2.670713329e+05

No IIS available for current model

